Version identifier: 22.1.1.0 | 2022-11-28 | 9160aff4d
CPXPARAM_ClockType                               1
CPXPARAM_Read_DataCheck                          1
CPXPARAM_Threads                                 1
CPXPARAM_TimeLimit                               7200
CPXPARAM_MIP_Tolerances_AbsMIPGap                0
CPXPARAM_MIP_Tolerances_MIPGap                   0
CPXPARAM_MIP_Tolerances_Integrality              0
Found incumbent of value 0.000000 after 0.00 sec. (0.72 ticks)
Tried aggregator 2 times.
MIP Presolve eliminated 12 rows and 4 columns.
MIP Presolve modified 8 coefficients.
Aggregator did 127 substitutions.
Reduced MIP has 32361 rows, 1647 columns, and 99353 nonzeros.
Reduced MIP has 1647 binaries, 0 generals, 0 SOSs, and 0 indicators.
Presolve time = 0.09 sec. (58.05 ticks)
Probing time = 0.00 sec. (3.69 ticks)
Tried aggregator 1 time.
Detecting symmetries...
Reduced MIP has 32361 rows, 1647 columns, and 99353 nonzeros.
Reduced MIP has 1647 binaries, 0 generals, 0 SOSs, and 0 indicators.
Presolve time = 0.08 sec. (51.19 ticks)
Probing time = 0.00 sec. (3.69 ticks)
Clique table members: 288.
MIP emphasis: balance optimality and feasibility.
MIP search method: dynamic search.
Parallel mode: none, using 1 thread.
Root relaxation solution time = 0.08 sec. (76.75 ticks)

        Nodes                                         Cuts/
   Node  Left     Objective  IInf  Best Integer    Best Bound    ItCnt     Gap

*     0+    0                            0.0000      762.0000              --- 
      0     0      762.0000    49        0.0000      762.0000      551     --- 
      0     0      762.0000    53        0.0000      Cuts: 56      596     --- 
*     0+    0                          758.0000      762.0000             0.53%
*     0+    0                          762.0000      762.0000             0.00%
      0     0        cutoff            762.0000      762.0000      596    0.00%
Elapsed time = 11.98 sec. (7595.27 ticks, tree = 0.01 MB, solutions = 3)

Clique cuts applied:  2
Implied bound cuts applied:  1
Zero-half cuts applied:  25

Root node processing (before b&c):
  Real time             =   11.98 sec. (7595.50 ticks)
Sequential b&c:
  Real time             =    0.00 sec. (0.00 ticks)
                          ------------
Total (root+branch&cut) =   11.98 sec. (7595.50 ticks)
Solution is feasible.

---------------------
@@@ MIP_optimal
>>> Benchmark mc2024_track1_175.cnf k 5 OPT 762 TimeCost 14.214748859405518 TimeSolve 12.126500368118286 TimeRead 0.012631654739379883 TimeTrans 2.0756168365478516
